
Gurobi 13.0.0 (win64) logging started Thu Apr 16 15:27:28 2026


Gurobi 13.0.0 (win64) logging started Thu Apr 16 15:28:06 2026


Gurobi 13.0.0 (win64) logging started Thu Apr 16 15:28:08 2026


Gurobi 13.0.0 (win64) logging started Thu Apr 16 15:28:08 2026


Gurobi 13.0.0 (win64) logging started Thu Apr 16 15:28:09 2026


Gurobi 13.0.0 (win64) logging started Thu Apr 16 15:28:39 2026


Gurobi 13.0.0 (win64) logging started Thu Apr 16 15:28:41 2026


Gurobi 13.0.0 (win64) logging started Thu Apr 16 15:30:42 2026


Gurobi 13.0.0 (win64) logging started Thu Apr 16 15:37:10 2026


Gurobi 13.0.0 (win64) logging started Thu Apr 16 15:37:11 2026


Gurobi 13.0.0 (win64) logging started Thu Apr 16 15:39:14 2026


Gurobi 13.0.0 (win64) logging started Thu Apr 16 15:39:14 2026

